
n_res = 4;
rcap = [38, 27, 259, 285];
rtype = [1, 1, 2, 2];
n_tasks = 50;
modes =  [{1, 2, 3}, {4, 5, 6}, {7, 8, 9}, {10, 11, 12}, {13, 14, 15}, {16, 17, 18}, {19, 20, 21}, {22, 23, 24}, {25, 26, 27}, {28, 29, 30}, {31, 32, 33}, {34, 35, 36}, {37, 38, 39}, {40, 41, 42}, {43, 44, 45}, {46, 47, 48}, {49, 50, 51}, {52, 53, 54}, {55, 56, 57}, {58, 59, 60}, {61, 62, 63}, {64, 65, 66}, {67, 68, 69}, {70, 71, 72}, {73, 74, 75}, {76, 77, 78}, {79, 80, 81}, {82, 83, 84}, {85, 86, 87}, {88, 89, 90}, {91, 92, 93}, {94, 95, 96}, {97, 98, 99}, {100, 101, 102}, {103, 104, 105}, {106, 107, 108}, {109, 110, 111}, {112, 113, 114}, {115, 116, 117}, {118, 119, 120}, {121, 122, 123}, {124, 125, 126}, {127, 128, 129}, {130, 131, 132}, {133, 134, 135}, {136, 137, 138}, {139, 140, 141}, {142, 143, 144}, {145, 146, 147}, {148, 149, 150}];
succ =  [{28, 25, 22, 20, 14, 13, 6}, {30, 22, 21, 20, 16, 11, 8}, {32, 28, 27, 25, 24, 22, 20, 14, 13}, {34, 32, 24, 20, 19, 18, 12}, {34, 33, 30, 25, 24, 11}, {33, 30, 16, 11}, {20, 17, 12}, {32, 31, 29, 28, 27, 25, 24, 23, 17}, {30, 28, 19, 14}, {42, 40, 35, 33, 32, 29, 28, 23, 19}, {42, 40, 32, 29, 27, 19, 18}, {42, 31, 30, 29, 28, 26, 25, 21}, {41, 40, 35, 34, 33, 31, 30, 29, 26}, {36, 35, 29, 23, 17}, {50, 42, 41, 40, 36, 32, 31, 29, 26}, {40, 36, 35, 34, 31, 24}, {48, 41, 40, 38, 37, 34, 33}, {39, 36, 35, 23}, {50, 49, 41, 36, 31}, {49, 48, 40, 38, 37, 33}, {41, 39, 27}, {49, 48, 46, 42, 40, 38}, {47, 26}, {50, 48, 47, 38, 37}, {50, 49, 48, 46, 45, 39}, {49, 48, 38, 37}, {46, 36, 35}, {49, 46, 45, 39, 38}, {47, 39, 37}, {50, 45, 36}, {47, 44, 37}, {47, 44, 37}, {50, 46, 45, 44, 43}, {50, 45, 39}, {49, 48, 44, 43}, {48, 38}, {46, 45, 43}, {44, 43}, {44, 43}, {47, 45}, {47}, {47}, {}, {}, {}, {}, {}, {}, {}, {}];
n_opt = 150;
dur = [5, 9, 10, 6, 8, 9, 2, 7, 9, 4, 7, 8, 7, 7, 9, 2, 7, 8, 1, 7, 10, 4, 6, 7, 4, 7, 9, 2, 8, 9, 1, 3, 8, 2, 4, 7, 1, 2, 10, 4, 9, 10, 4, 7, 10, 6, 6, 7, 5, 6, 8, 1, 4, 5, 6, 7, 10, 3, 9, 10, 2, 9, 10, 3, 9, 10, 6, 8, 9, 2, 3, 7, 1, 5, 5, 2, 3, 5, 1, 4, 9, 3, 6, 7, 4, 6, 8, 5, 7, 9, 5, 8, 10, 6, 7, 10, 2, 4, 10, 2, 7, 8, 1, 9, 10, 2, 4, 10, 4, 10, 10, 1, 3, 7, 5, 9, 10, 2, 8, 9, 1, 8, 8, 3, 4, 7, 5, 6, 7, 4, 9, 10, 3, 9, 10, 1, 7, 10, 2, 7, 8, 1, 10, 10, 2, 5, 8, 1, 3, 6];
rreq = [|6, 0, 0, 0, 0, 0, 10, 6, 5, 8, 0, 3, 0, 5, 0, 4, 0, 4, 0, 0, 5, 0, 0, 0, 2, 0, 0, 8, 7, 6, 0, 3, 3, 0, 0, 0, 0, 0, 8, 0, 0, 0, 0, 0, 0, 3, 0, 3, 6, 6, 0, 0, 0, 0, 5, 5, 3, 0, 5, 0, 0, 0, 0, 0, 5, 2, 1, 1, 1, 0, 0, 10, 0, 0, 6, 10, 5, 0, 9, 0, 0, 0, 7, 0, 0, 0, 6, 0, 0, 0, 4, 0, 2, 5, 5, 4, 0, 8, 8, 9, 0, 6, 0, 0, 0, 9, 9, 9, 0, 0, 6, 0, 8, 0, 6, 4, 1, 0, 1, 1, 9, 8, 0, 0, 0, 1, 0, 8, 6, 7, 0, 6, 0, 0, 2, 0, 5, 2, 7, 0, 0, 5, 0, 4, 0, 0, 0, 8, 0, 0
 |0, 6, 2, 6, 5, 4, 0, 0, 0, 0, 5, 0, 4, 0, 3, 0, 7, 0, 9, 9, 0, 2, 2, 2, 0, 7, 6, 0, 0, 0, 8, 0, 0, 6, 6, 5, 6, 5, 0, 5, 3, 3, 8, 5, 2, 0, 5, 0, 0, 0, 3, 7, 7, 6, 0, 0, 0, 7, 0, 2, 7, 6, 5, 9, 0, 0, 0, 0, 0, 6, 4, 0, 5, 2, 0, 0, 0, 4, 0, 4, 3, 4, 0, 4, 8, 7, 0, 6, 6, 6, 0, 5, 0, 0, 0, 0, 6, 0, 0, 0, 2, 0, 7, 6, 6, 0, 0, 0, 3, 3, 0, 6, 0, 4, 0, 0, 0, 7, 0, 0, 0, 0, 1, 7, 3, 0, 3, 0, 0, 0, 7, 0, 7, 6, 0, 9, 0, 0, 0, 3, 2, 0, 7, 0, 6, 6, 5, 0, 8, 8
 |5, 4, 1, 6, 5, 5, 7, 5, 4, 5, 4, 4, 4, 4, 4, 3, 1, 1, 8, 6, 6, 5, 4, 4, 5, 4, 4, 6, 5, 5, 9, 8, 7, 1, 1, 1, 1, 1, 1, 5, 5, 3, 10, 4, 2, 7, 3, 1, 6, 6, 4, 7, 7, 5, 8, 7, 6, 4, 4, 2, 4, 4, 4, 7, 4, 3, 6, 4, 3, 5, 5, 5, 3, 2, 2, 5, 3, 3, 8, 6, 1, 6, 6, 3, 4, 3, 2, 4, 3, 2, 8, 7, 6, 10, 10, 10, 9, 7, 7, 7, 5, 3, 6, 4, 4, 10, 8, 8, 9, 9, 9, 7, 6, 2, 6, 5, 4, 8, 8, 8, 9, 7, 7, 6, 5, 3, 8, 8, 7, 8, 4, 2, 4, 3, 1, 8, 8, 6, 6, 5, 4, 8, 6, 5, 9, 5, 4, 5, 5, 5
 |8, 7, 6, 7, 5, 4, 5, 4, 2, 8, 5, 5, 6, 5, 5, 10, 9, 9, 3, 3, 2, 7, 7, 6, 4, 3, 3, 5, 5, 5, 8, 8, 5, 7, 6, 5, 3, 1, 1, 9, 6, 1, 10, 5, 1, 9, 8, 8, 7, 6, 3, 5, 4, 4, 8, 5, 4, 10, 8, 7, 9, 9, 9, 10, 9, 7, 6, 6, 6, 2, 2, 2, 8, 7, 5, 10, 9, 9, 7, 3, 2, 4, 2, 2, 6, 6, 6, 7, 7, 6, 4, 4, 4, 8, 7, 7, 6, 5, 2, 6, 5, 5, 9, 9, 8, 8, 6, 5, 2, 1, 1, 9, 9, 9, 6, 4, 3, 6, 4, 3, 8, 5, 3, 7, 7, 5, 6, 4, 4, 7, 4, 3, 6, 5, 5, 7, 4, 4, 7, 6, 3, 7, 7, 4, 6, 4, 3, 9, 6, 5|];